(declare-const bracket1 Real)
(declare-const tax1 Real)
(declare-const tax2 Real)
(declare-const income Real)
(declare-const bracket3 Real)
(declare-const bracket2 Real)
(declare-const fee_bl Real)
(declare-const tax3 Real)
(assert (= bracket1 (ite (> income 1000) 1000 income)))
(assert (= tax1 (* 0.02 bracket1)))
(assert (= bracket2 (ite (> income 6000) 5000 (ite (> income 1000) (- income 1000) 0))))
(assert (= tax2 (* 0.04 bracket2)))
(assert (= bracket3 (ite (> income 6000) (- income 6000) 0)))
(assert (= tax3 (* 0.05 bracket3)))
(assert (= fee_bl (+ (+ tax1 tax2) tax3)))